c turning on binary mode checking
c parsing input formula with 259840 variables and 1039924 clauses
c finished parsing, read 2852083 bytes from proof file
c detected empty clause; start verification via backward checking
c 1175 of 1039924 clauses in core                            
c 346 of 114724 lemmas in core using 2957 resolution steps
c 0 RAT lemmas in core; 15 redundant literals in core lemmas
s VERIFIED
c verification time: 1.189 seconds
